SumColouring/JavaBacktracker/RandomInstances/10_0.05_3.col
c File: instances/10_0.05_3.col
c
c Description: Random graph of size 10 vertices and P(0.05) of edges between any two vertices.
p col 10 45
e 3 5
e 5 8
e 8 10