SumColouring/MiniZinc model/Experiments/10_0.05_3.col.dzn
% Data file generated from RandomInstances/10_0.05_3.col DIMACS file
size = 10;

chi = 2;

adjacency = [|0,0,0,0,0,0,0,0,0,0,
|0,0,0,0,0,0,0,0,0,0,
|0,0,0,0,1,0,0,0,0,0,
|0,0,0,0,0,0,0,0,0,0,
|0,0,1,0,0,0,0,1,0,0,
|0,0,0,0,0,0,0,0,0,0,
|0,0,0,0,0,0,0,0,0,0,
|0,0,0,0,1,0,0,0,0,1,
|0,0,0,0,0,0,0,0,0,0,
|0,0,0,0,0,0,0,1,0,0,
|];